NAME          BLANK   
ROWS
 N  OBJROW
 L  R0000000
COLUMNS
    C0000000  OBJROW     -152.         R0000000  617.        
    C0000001  OBJROW     -312.         R0000000  823.        
    C0000002  OBJROW     -435.         R0000000  403.        
    C0000003  OBJROW     -915.         R0000000  626.        
    C0000004  OBJROW     -135.         R0000000  365.        
    C0000005  OBJROW     -875.         R0000000  853.        
    C0000006  OBJROW     -499.         R0000000  132.        
    C0000007  OBJROW     -95.          R0000000  140.        
    C0000008  OBJROW     -79.          R0000000  23.         
    C0000009  OBJROW     -308.         R0000000  172.        
    C0000010  OBJROW     -71.          R0000000  999.        
    C0000011  OBJROW     -595.         R0000000  251.        
    C0000012  OBJROW     -598.         R0000000  435.        
    C0000013  OBJROW     -974.         R0000000  577.        
RHS
    RHS       R0000000  13852.      
BOUNDS
 BV BOUND     C0000000  1.          
 BV BOUND     C0000001  1.          
 BV BOUND     C0000002  1.          
 BV BOUND     C0000003  1.          
 BV BOUND     C0000004  1.          
 BV BOUND     C0000005  1.          
 BV BOUND     C0000006  1.          
 BV BOUND     C0000007  1.          
 BV BOUND     C0000008  1.          
 BV BOUND     C0000009  1.          
 BV BOUND     C0000010  1.          
 BV BOUND     C0000011  1.          
 BV BOUND     C0000012  1.          
 BV BOUND     C0000013  1.          
ENDATA
